p cnf 100 120
63 -60 -90 0
47 16 -74 0
-86 66 33 0
76 -77 -59 0
-17 73 -49 0
81 -48 49 0
-69 24 44 0
-73 -41 87 0
-37 -58 -77 0
-21 -1 43 0
-2 -53 92 0
-99 -23 -15 0
64 -57 -86 0
97 -86 48 0
-89 88 -92 0
-97 -52 -54 0
-94 59 76 0
98 58 -73 0
-60 43 -22 0
80 -97 48 0
48 79 -92 0
65 -8 -58 0
-17 11 -60 0
-47 64 62 0
3 30 -62 0
-73 -86 -76 0
-72 4 -47 0
14 44 32 0
100 70 2 0
-42 73 83 0
-76 19 63 0
-27 76 -40 0
17 57 -91 0
-96 -63 -24 0
-72 -13 -3 0
-62 90 -20 0
-6 45 -7 0
16 -64 2 0
-40 70 -34 0
45 -67 -11 0
57 -95 91 0
-100 -33 22 0
-94 -69 -33 0
49 -92 74 0
34 -100 -80 0
73 -94 -86 0
30 83 27 0
24 -46 11 0
-2 4 -34 0
-19 -67 76 0
100 -62 99 0
-63 67 -27 0
44 7 20 0
17 72 100 0
74 -90 48 0
22 -79 61 0
-29 8 43 0
-73 -56 -22 0
-16 -93 18 0
-42 79 5 0
73 -48 -85 0
-67 -9 -59 0
-19 -10 -6 0
-67 -3 -32 0
80 -87 -88 0
-74 14 76 0
21 -6 -34 0
-19 -11 -54 0
-9 1 76 0
-13 50 -83 0
-53 100 -65 0
-85 -88 24 0
44 92 90 0
-45 -83 67 0
45 13 -63 0
22 48 25 0
94 8 70 0
81 74 -10 0
-28 61 45 0
-91 -81 82 0
-76 -86 11 0
4 43 70 0
-39 12 -55 0
15 98 4 0
66 84 -12 0
-26 9 17 0
-45 -23 33 0
-37 -50 -43 0
-49 73 -85 0
86 -5 25 0
-86 -85 87 0
22 68 23 0
-12 -25 47 0
-68 -92 49 0
-16 58 -5 0
-23 55 -94 0
19 -3 -21 0
-48 -38 -71 0
79 36 -40 0
46 -5 -86 0
x -1 4 6 -7 8 -10 -11 13 -14 15 16 18 -19 -21 22 23 -24 25 26 28 30 36 -37 -38 -42 -47 49 -50 51 52 53 58 62 -63 -65 -69 70 71 -75 76 -80 83 -85 86 -90 -93 94 -95 -96 -97 -98 -100 0
x 1 -2 3 6 -8 -10 -15 -16 17 -18 -24 25 26 -28 29 -30 32 33 35 -36 -40 -44 45 46 -48 49 50 52 54 60 -61 62 -65 69 71 72 77 -78 79 -82 -84 -85 -89 90 -91 95 97 0
x -2 4 12 15 17 -19 -21 -24 25 -26 27 -28 -30 -31 37 41 -42 44 -46 47 50 -51 52 -53 -54 -56 58 63 -64 -65 -68 -69 -74 -75 76 -77 -78 -79 -80 -81 84 -85 -92 -96 98 0
x -1 2 -3 5 -6 7 -8 -9 -10 -11 12 13 14 17 -24 -25 -26 27 28 29 31 -32 35 -36 37 39 43 -45 46 -47 49 52 54 55 -57 61 62 63 66 68 -72 75 77 78 -82 83 84 -86 93 -95 98 99 -100 0
x -2 -7 8 -9 10 -11 -12 13 -14 -15 -16 18 -19 -26 -27 -28 -30 -31 -32 33 -35 36 -37 -39 40 -42 -43 45 -49 52 -53 54 56 57 61 -62 -63 64 67 -71 72 73 75 78 79 81 -82 -83 -84 -85 -86 88 89 90 92 -93 95 96 98 0
x -2 4 6 7 -10 -11 -12 -15 -18 -20 22 -23 26 27 28 29 -30 -31 -32 -35 -37 -40 41 -43 -45 46 49 -50 52 -56 -57 -61 63 64 65 -67 -68 69 -72 -73 74 -75 -76 77 -83 87 88 -91 94 -95 -98 -99 0
x 1 -7 -8 -11 -13 20 -22 -26 27 29 -30 -31 -33 34 -35 -36 39 40 -43 44 46 -47 48 -49 -55 -57 -60 63 64 65 -66 69 -70 75 76 -78 -82 -83 86 89 91 -92 -93 97 98 99 0
x 3 -5 7 -9 -12 -13 14 15 -16 19 21 -22 -25 -27 -28 -29 -30 31 34 35 -37 42 -44 45 -46 -48 49 -50 53 56 -58 59 60 63 66 67 -69 71 -72 74 -75 -76 -77 78 -79 -80 -81 -82 -83 87 89 -90 -92 93 95 -97 -98 0
x -1 4 -5 -7 -10 11 14 -16 -18 -19 20 -22 -24 28 -29 31 -32 33 38 -40 43 45 49 50 51 -54 -55 59 61 62 63 68 -70 -71 -72 74 77 -78 81 -82 -83 84 -85 86 -89 90 -92 0
x 8 9 -10 -12 -13 17 18 -21 23 -24 26 -28 29 -32 33 -34 36 37 -42 -46 -48 -54 -55 56 -61 63 -64 65 -67 -70 -71 -72 73 -74 78 -79 80 -81 84 -86 -88 -91 -93 -94 0
x 3 4 7 12 -19 -20 -23 -26 28 29 -31 -33 -34 -36 37 41 -42 -45 -46 49 -50 -52 54 -55 57 -58 -60 -61 62 63 64 65 -69 71 -73 75 -77 78 79 81 86 -89 -90 -92 -93 -94 -96 97 -98 100 0
x -3 -4 -7 9 11 -13 16 18 -19 -22 23 24 25 26 27 -31 -32 -33 -35 36 -37 38 39 -42 43 -44 47 -50 53 56 -57 -58 -59 -61 -62 64 -68 -72 73 -74 -78 79 -80 -81 -82 83 85 -86 91 -93 97 -98 -99 100 0
x 1 -3 6 -8 -9 10 -11 12 -14 15 -17 18 -19 -20 -21 24 -25 28 -30 32 -33 -35 36 -37 38 -40 -41 42 -43 -44 46 -48 50 54 -56 61 63 -66 -69 -72 -77 78 -79 83 -87 -88 -89 91 -93 -94 97 -100 0
x 2 3 4 6 7 8 -9 -11 12 14 15 -18 19 -22 -23 24 -25 -26 28 29 31 -32 -34 35 37 38 -39 41 -42 -44 45 -47 48 49 52 -53 54 55 -57 -58 63 -70 72 73 74 -79 -80 -81 -82 84 85 86 -89 92 -94 98 99 -100 0
x -1 3 4 -6 -7 -10 -13 -14 15 -17 18 -22 25 26 30 -32 -33 -35 36 39 -43 -44 -45 -48 -49 51 -52 54 -57 59 -62 63 67 -69 71 72 -75 -76 -78 -80 -81 82 -85 -88 91 -93 -94 96 -97 0
x 4 6 8 -9 -11 12 15 19 -25 -33 -34 36 37 41 45 -47 49 -51 -52 -53 -56 58 59 60 -62 63 -67 -74 -75 77 80 82 85 -86 -88 -89 91 93 -94 0
x 2 -3 -4 -5 -6 7 11 14 -15 17 -19 26 28 29 -30 -32 -34 35 -36 41 -43 -44 48 -50 51 52 -55 56 57 -58 -60 62 -64 -65 -66 67 -68 -72 75 -76 -77 -80 85 86 -88 -89 90 -91 -92 -95 -98 100 0
x -1 5 8 9 10 -11 -13 20 -22 -23 27 -28 29 -31 -33 -34 -35 36 37 -39 41 -43 44 52 -56 -57 -59 -60 63 -64 65 70 71 73 -78 79 -80 82 85 -86 87 89 -92 -93 95 97 -98 99 100 0
x 1 -3 -4 5 6 -7 10 -11 12 13 17 18 -25 -26 -27 35 37 38 40 42 -43 -45 -46 47 48 -51 -52 54 -55 56 57 -60 -62 -63 -65 67 -68 -69 70 71 73 -80 -81 82 -84 -85 -87 90 91 92 -98 0
x 3 4 5 -7 9 -11 -12 14 15 17 20 24 -25 -28 -29 30 -31 -32 34 -35 38 -40 -42 -44 46 49 -51 52 53 55 56 57 -58 -59 61 -62 64 -73 76 78 -80 81 83 84 87 -90 -91 -92 93 96 97 0
